c This file is generated by v2cnfMtr
c Generated on Thu Feb 25 17:11:44 2016
p cnf 708 1931
1 66 0
-1 -66 0
2 67 0
-2 -67 0
4 68 0
-4 -68 0
6 69 0
-6 -69 0
8 70 0
-8 -70 0
10 71 0
-10 -71 0
12 72 0
-12 -72 0
14 73 0
-14 -73 0
16 74 0
-16 -74 0
18 75 0
-18 -75 0
20 76 0
-20 -76 0
22 77 0
-22 -77 0
24 78 0
-24 -78 0
26 79 0
-26 -79 0
28 80 0
-28 -80 0
30 81 0
-30 -81 0
32 82 0
-32 -82 0
34 83 0
-34 -83 0
-66 -2 -84 0
66 84 0
2 84 0
3 67 85 0
-3 -85 0
-67 -85 0
5 67 86 0
-5 -86 0
-67 -86 0
-68 -6 -87 0
68 87 0
6 87 0
-70 -10 -88 0
70 88 0
10 88 0
-72 -14 -89 0
72 89 0
14 89 0
-74 -18 -90 0
74 90 0
18 90 0
-76 -22 -91 0
76 91 0
22 91 0
-78 -26 -92 0
78 92 0
26 92 0
-80 -30 -93 0
80 93 0
30 93 0
-82 -34 -94 0
82 94 0
34 94 0
7 69 95 0
-7 -95 0
-69 -95 0
9 69 96 0
-9 -96 0
-69 -96 0
11 71 97 0
-11 -97 0
-71 -97 0
13 71 98 0
-13 -98 0
-71 -98 0
15 73 99 0
-15 -99 0
-73 -99 0
17 73 100 0
-17 -100 0
-73 -100 0
19 75 101 0
-19 -101 0
-75 -101 0
21 75 102 0
-21 -102 0
-75 -102 0
23 77 103 0
-23 -103 0
-77 -103 0
25 77 104 0
-25 -104 0
-77 -104 0
27 79 105 0
-27 -105 0
-79 -105 0
29 79 106 0
-29 -106 0
-79 -106 0
31 81 107 0
-31 -107 0
-81 -107 0
33 81 108 0
-33 -108 0
-81 -108 0
36 83 110 0
-36 -110 0
-83 -110 0
-84 -87 -88 -89 -90 -91 -92 -93 -94 111 0
84 -111 0
87 -111 0
88 -111 0
89 -111 0
90 -111 0
91 -111 0
92 -111 0
93 -111 0
94 -111 0
111 112 0
-111 -112 0
111 113 0
-111 -113 0
111 59 0
-111 -59 0
-112 -84 -114 0
112 84 -114 0
112 -84 114 0
-112 84 114 0
-112 -87 -115 0
112 87 -115 0
112 -87 115 0
-112 87 115 0
-112 -88 -116 0
112 88 -116 0
112 -88 116 0
-112 88 116 0
-112 -89 -117 0
112 89 -117 0
112 -89 117 0
-112 89 117 0
-112 -90 -118 0
112 90 -118 0
112 -90 118 0
-112 90 118 0
-112 -91 -119 0
112 91 -119 0
112 -91 119 0
-112 91 119 0
-1 -113 -120 0
1 120 0
113 120 0
-112 -92 -121 0
112 92 -121 0
112 -92 121 0
-112 92 121 0
-113 -4 -122 0
113 122 0
4 122 0
-112 -93 -123 0
112 93 -123 0
112 -93 123 0
-112 93 123 0
-113 -8 -124 0
113 124 0
8 124 0
-112 -94 -125 0
112 94 -125 0
112 -94 125 0
-112 94 125 0
-113 -12 -126 0
113 126 0
12 126 0
-113 -16 -127 0
113 127 0
16 127 0
-113 -20 -128 0
113 128 0
20 128 0
-113 -24 -129 0
113 129 0
24 129 0
-113 -28 -130 0
113 130 0
28 130 0
-113 -32 -131 0
113 131 0
32 131 0
-114 -85 -132 0
114 132 0
85 132 0
-114 -86 -133 0
114 133 0
86 133 0
-115 -95 -134 0
115 134 0
95 134 0
-116 -97 -135 0
116 135 0
97 135 0
-117 -99 -136 0
117 136 0
99 136 0
-118 -101 -137 0
118 137 0
101 137 0
-119 -103 -138 0
119 138 0
103 138 0
-121 -105 -139 0
121 139 0
105 139 0
-123 -107 -140 0
123 140 0
107 140 0
-115 -96 -142 0
115 142 0
96 142 0
-116 -98 -143 0
116 143 0
98 143 0
-117 -100 -144 0
117 144 0
100 144 0
-118 -102 -145 0
118 145 0
102 145 0
-119 -104 -146 0
119 146 0
104 146 0
-121 -106 -147 0
121 147 0
106 147 0
-123 -108 -148 0
123 148 0
108 148 0
-125 -110 -149 0
125 149 0
110 149 0
-132 -134 -135 -136 -137 -138 -139 -140 -141 150 0
132 -150 0
134 -150 0
135 -150 0
136 -150 0
137 -150 0
138 -150 0
139 -150 0
140 -150 0
141 -150 0
133 151 0
-133 -151 0
142 152 0
-142 -152 0
143 153 0
-143 -153 0
144 154 0
-144 -154 0
145 155 0
-145 -155 0
146 156 0
-146 -156 0
147 157 0
-147 -157 0
148 158 0
-148 -158 0
149 159 0
-149 -159 0
150 160 0
-150 -160 0
150 161 0
-150 -161 0
150 60 0
-150 -60 0
-160 -132 -162 0
160 132 -162 0
160 -132 162 0
-160 132 162 0
-160 -134 -163 0
160 134 -163 0
160 -134 163 0
-160 134 163 0
-160 -135 -164 0
160 135 -164 0
160 -135 164 0
-160 135 164 0
-160 -136 -165 0
160 136 -165 0
160 -136 165 0
-160 136 165 0
-3 -161 -166 0
3 166 0
161 166 0
-160 -137 -167 0
160 137 -167 0
160 -137 167 0
-160 137 167 0
-161 -7 -168 0
161 168 0
7 168 0
-160 -138 -169 0
160 138 -169 0
160 -138 169 0
-160 138 169 0
-161 -11 -170 0
161 170 0
11 170 0
-160 -139 -171 0
160 139 -171 0
160 -139 171 0
-160 139 171 0
-161 -15 -172 0
161 172 0
15 172 0
-160 -140 -173 0
160 140 -173 0
160 -140 173 0
-160 140 173 0
-161 -19 -174 0
161 174 0
19 174 0
-160 -141 -175 0
160 141 -175 0
160 -141 175 0
-160 141 175 0
-161 -23 -176 0
161 176 0
23 176 0
-161 -27 -177 0
161 177 0
27 177 0
-161 -31 -178 0
161 178 0
31 178 0
-161 -35 -179 0
161 179 0
35 179 0
-162 -151 -180 0
162 180 0
151 180 0
-163 -152 -181 0
163 181 0
152 181 0
-164 -153 -182 0
164 182 0
153 182 0
-165 -154 -183 0
165 183 0
154 183 0
-167 -155 -184 0
167 184 0
155 184 0
-169 -156 -185 0
169 185 0
156 185 0
-171 -157 -186 0
171 186 0
157 186 0
-173 -158 -187 0
173 187 0
158 187 0
-175 -159 -188 0
175 188 0
159 188 0
-180 -181 -182 -183 -184 -185 -186 -187 -188 189 0
180 -189 0
181 -189 0
182 -189 0
183 -189 0
184 -189 0
185 -189 0
186 -189 0
187 -189 0
188 -189 0
189 190 0
-189 -190 0
189 61 0
-189 -61 0
-5 -190 -191 0
5 191 0
190 191 0
-190 -9 -192 0
190 192 0
9 192 0
-190 -13 -193 0
190 193 0
13 193 0
-190 -17 -194 0
190 194 0
17 194 0
-190 -21 -195 0
190 195 0
21 195 0
-190 -25 -196 0
190 196 0
25 196 0
-190 -29 -197 0
190 197 0
29 197 0
-190 -33 -198 0
190 198 0
33 198 0
-190 -36 -199 0
190 199 0
36 199 0
-2 -120 -166 -191 -200 0
2 200 0
120 200 0
166 200 0
191 200 0
-122 -168 -192 -6 -201 0
122 201 0
168 201 0
192 201 0
6 201 0
-124 -170 -193 -10 -202 0
124 202 0
170 202 0
193 202 0
10 202 0
-126 -172 -194 -14 -203 0
126 203 0
172 203 0
194 203 0
14 203 0
-127 -174 -195 -18 -204 0
127 204 0
174 204 0
195 204 0
18 204 0
-128 -176 -196 -22 -205 0
128 205 0
176 205 0
196 205 0
22 205 0
-129 -177 -197 -26 -206 0
129 206 0
177 206 0
197 206 0
26 206 0
-130 -178 -198 -30 -207 0
130 207 0
178 207 0
198 207 0
30 207 0
-131 -179 -199 -34 -208 0
131 208 0
179 208 0
199 208 0
34 208 0
200 209 0
-200 -209 0
-201 -202 -203 -204 -205 -206 -207 -208 210 0
201 -210 0
202 -210 0
203 -210 0
204 -210 0
205 -210 0
206 -210 0
207 -210 0
208 -210 0
203 211 0
-203 -211 0
205 212 0
-205 -212 0
206 213 0
-206 -213 0
207 214 0
-207 -214 0
209 210 62 0
-209 -62 0
-210 -62 0
-202 -211 -215 0
202 215 0
211 215 0
-202 -203 -212 -204 -216 0
202 216 0
203 216 0
212 216 0
204 216 0
-204 -203 -213 -217 0
204 217 0
203 217 0
213 217 0
-202 -203 -206 -214 -218 0
202 218 0
203 218 0
206 218 0
214 218 0
-201 -202 -215 -204 -63 0
201 63 0
202 63 0
215 63 0
204 63 0
-201 -202 -216 -217 -64 0
201 64 0
202 64 0
216 64 0
217 64 0
-201 -215 -216 -218 -65 0
201 65 0
215 65 0
216 65 0
218 65 0
39 219 0
-39 -219 0
40 220 0
-40 -220 0
37 38 0
-37 -38 0
-37 -219 222 0
37 -222 0
219 -222 0
-38 -219 223 0
38 -223 0
219 -223 0
-37 -39 224 0
37 -224 0
39 -224 0
-38 -39 225 0
38 -225 0
39 -225 0
-222 -220 231 0
222 -231 0
220 -231 0
-223 -40 229 0
223 -229 0
40 -229 0
-224 -220 227 0
224 -227 0
220 -227 0
-225 -40 226 0
225 -226 0
40 -226 0
226 227 -228 0
-226 228 0
-227 228 0
228 229 -230 0
-228 230 0
-229 230 0
231 230 -221 0
-231 221 0
-230 221 0
41 232 0
-41 -232 0
42 233 0
-42 -233 0
37 38 0
-37 -38 0
-37 -232 234 0
37 -234 0
232 -234 0
-38 -232 235 0
38 -235 0
232 -235 0
-37 -41 236 0
37 -236 0
41 -236 0
-38 -41 237 0
38 -237 0
41 -237 0
-234 -233 243 0
234 -243 0
233 -243 0
-235 -42 241 0
235 -241 0
42 -241 0
-236 -233 239 0
236 -239 0
233 -239 0
-237 -42 238 0
237 -238 0
42 -238 0
238 239 -240 0
-238 240 0
-239 240 0
240 241 -242 0
-240 242 0
-241 242 0
243 242 -221 0
-243 221 0
-242 221 0
43 244 0
-43 -244 0
44 245 0
-44 -245 0
35 246 0
-35 -246 0
-35 -244 248 0
35 -248 0
244 -248 0
-246 -244 249 0
246 -249 0
244 -249 0
-37 -43 250 0
37 -250 0
43 -250 0
-38 -43 251 0
38 -251 0
43 -251 0
-248 -245 257 0
248 -257 0
245 -257 0
-249 -44 255 0
249 -255 0
44 -255 0
-250 -245 253 0
250 -253 0
245 -253 0
-251 -44 252 0
251 -252 0
44 -252 0
252 253 -254 0
-252 254 0
-253 254 0
254 255 -256 0
-254 256 0
-255 256 0
257 256 -247 0
-257 247 0
-256 247 0
45 258 0
-45 -258 0
46 259 0
-46 -259 0
83 260 0
-83 -260 0
-83 -258 262 0
83 -262 0
258 -262 0
-260 -258 263 0
260 -263 0
258 -263 0
-37 -45 264 0
37 -264 0
45 -264 0
-38 -45 265 0
38 -265 0
45 -265 0
-262 -259 271 0
262 -271 0
259 -271 0
-263 -46 269 0
263 -269 0
46 -269 0
-264 -259 267 0
264 -267 0
259 -267 0
-265 -46 266 0
265 -266 0
46 -266 0
266 267 -268 0
-266 268 0
-267 268 0
268 269 -270 0
-268 270 0
-269 270 0
271 270 -261 0
-271 261 0
-270 261 0
47 272 0
-47 -272 0
48 273 0
-48 -273 0
275 274 0
-275 -274 0
-275 -272 276 0
275 -276 0
272 -276 0
-274 -272 277 0
274 -277 0
272 -277 0
-37 -47 278 0
37 -278 0
47 -278 0
-38 -47 279 0
38 -279 0
47 -279 0
-276 -273 285 0
276 -285 0
273 -285 0
-277 -48 283 0
277 -283 0
48 -283 0
-278 -273 281 0
278 -281 0
273 -281 0
-279 -48 280 0
279 -280 0
48 -280 0
280 281 -282 0
-280 282 0
-281 282 0
282 283 -284 0
-282 284 0
-283 284 0
285 284 -109 0
-285 109 0
-284 109 0
-221 -221 -247 -261 -275 0
221 275 0
221 275 0
247 275 0
261 275 0
49 286 0
-49 -286 0
50 287 0
-50 -287 0
37 38 0
-37 -38 0
-37 -286 288 0
37 -288 0
286 -288 0
-38 -286 289 0
38 -289 0
286 -289 0
-37 -49 290 0
37 -290 0
49 -290 0
-38 -49 291 0
38 -291 0
49 -291 0
-288 -287 297 0
288 -297 0
287 -297 0
-289 -50 295 0
289 -295 0
50 -295 0
-290 -287 293 0
290 -293 0
287 -293 0
-291 -50 292 0
291 -292 0
50 -292 0
292 293 -294 0
-292 294 0
-293 294 0
294 295 -296 0
-294 296 0
-295 296 0
297 296 -221 0
-297 221 0
-296 221 0
51 298 0
-51 -298 0
52 299 0
-52 -299 0
37 38 0
-37 -38 0
-37 -298 300 0
37 -300 0
298 -300 0
-38 -298 301 0
38 -301 0
298 -301 0
-37 -51 302 0
37 -302 0
51 -302 0
-38 -51 303 0
38 -303 0
51 -303 0
-300 -299 309 0
300 -309 0
299 -309 0
-301 -52 307 0
301 -307 0
52 -307 0
-302 -299 305 0
302 -305 0
299 -305 0
-303 -52 304 0
303 -304 0
52 -304 0
304 305 -306 0
-304 306 0
-305 306 0
306 307 -308 0
-306 308 0
-307 308 0
309 308 -221 0
-309 221 0
-308 221 0
53 310 0
-53 -310 0
54 311 0
-54 -311 0
125 312 0
-125 -312 0
-125 -310 314 0
125 -314 0
310 -314 0
-312 -310 315 0
312 -315 0
310 -315 0
-37 -53 316 0
37 -316 0
53 -316 0
-38 -53 317 0
38 -317 0
53 -317 0
-314 -311 323 0
314 -323 0
311 -323 0
-315 -54 321 0
315 -321 0
54 -321 0
-316 -311 319 0
316 -319 0
311 -319 0
-317 -54 318 0
317 -318 0
54 -318 0
318 319 -320 0
-318 320 0
-319 320 0
320 321 -322 0
-320 322 0
-321 322 0
323 322 -313 0
-323 313 0
-322 313 0
55 324 0
-55 -324 0
56 325 0
-56 -325 0
109 326 0
-109 -326 0
-109 -324 327 0
109 -327 0
324 -327 0
-326 -324 328 0
326 -328 0
324 -328 0
-37 -55 329 0
37 -329 0
55 -329 0
-38 -55 330 0
38 -330 0
55 -330 0
-327 -325 336 0
327 -336 0
325 -336 0
-328 -56 334 0
328 -334 0
56 -334 0
-329 -325 332 0
329 -332 0
325 -332 0
-330 -56 331 0
330 -331 0
56 -331 0
331 332 -333 0
-331 333 0
-332 333 0
333 334 -335 0
-333 335 0
-334 335 0
336 335 -275 0
-336 275 0
-335 275 0
57 337 0
-57 -337 0
58 338 0
-58 -338 0
340 339 0
-340 -339 0
-340 -337 341 0
340 -341 0
337 -341 0
-339 -337 342 0
339 -342 0
337 -342 0
-37 -57 343 0
37 -343 0
57 -343 0
-38 -57 344 0
38 -344 0
57 -344 0
-341 -338 350 0
341 -350 0
338 -350 0
-342 -58 348 0
342 -348 0
58 -348 0
-343 -338 346 0
343 -346 0
338 -346 0
-344 -58 345 0
344 -345 0
58 -345 0
345 346 -347 0
-345 347 0
-346 347 0
347 348 -349 0
-347 349 0
-348 349 0
350 349 -141 0
-350 141 0
-349 141 0
-221 -221 -313 -275 -340 0
221 340 0
221 340 0
313 340 0
275 340 0
c The second circuit:
351 416 0
-351 -416 0
352 417 0
-352 -417 0
354 418 0
-354 -418 0
356 419 0
-356 -419 0
358 420 0
-358 -420 0
360 421 0
-360 -421 0
362 422 0
-362 -422 0
364 423 0
-364 -423 0
366 424 0
-366 -424 0
368 425 0
-368 -425 0
370 426 0
-370 -426 0
372 427 0
-372 -427 0
374 428 0
-374 -428 0
376 429 0
-376 -429 0
378 430 0
-378 -430 0
380 431 0
-380 -431 0
382 432 0
-382 -432 0
384 433 0
-384 -433 0
-416 -352 -434 0
416 434 0
352 434 0
353 417 435 0
-353 -435 0
-417 -435 0
355 417 436 0
-355 -436 0
-417 -436 0
-418 -356 -437 0
418 437 0
356 437 0
-420 -360 -438 0
420 438 0
360 438 0
-422 -364 -439 0
422 439 0
364 439 0
-424 -368 -440 0
424 440 0
368 440 0
-426 -372 -441 0
426 441 0
372 441 0
-428 -376 -442 0
428 442 0
376 442 0
-430 -380 -443 0
430 443 0
380 443 0
-432 -384 -444 0
432 444 0
384 444 0
357 419 445 0
-357 -445 0
-419 -445 0
359 419 446 0
-359 -446 0
-419 -446 0
361 421 447 0
-361 -447 0
-421 -447 0
363 421 448 0
-363 -448 0
-421 -448 0
365 423 449 0
-365 -449 0
-423 -449 0
367 423 450 0
-367 -450 0
-423 -450 0
369 425 451 0
-369 -451 0
-425 -451 0
371 425 452 0
-371 -452 0
-425 -452 0
373 427 453 0
-373 -453 0
-427 -453 0
375 427 454 0
-375 -454 0
-427 -454 0
377 429 455 0
-377 -455 0
-429 -455 0
379 429 456 0
-379 -456 0
-429 -456 0
381 431 457 0
-381 -457 0
-431 -457 0
383 431 458 0
-383 -458 0
-431 -458 0
386 433 460 0
-386 -460 0
-433 -460 0
-434 -437 -438 -439 -440 -441 -442 -443 -444 461 0
434 -461 0
437 -461 0
438 -461 0
439 -461 0
440 -461 0
441 -461 0
442 -461 0
443 -461 0
444 -461 0
461 462 0
-461 -462 0
461 463 0
-461 -463 0
461 409 0
-461 -409 0
-462 -434 -464 0
462 434 -464 0
462 -434 464 0
-462 434 464 0
-462 -437 -465 0
462 437 -465 0
462 -437 465 0
-462 437 465 0
-462 -438 -466 0
462 438 -466 0
462 -438 466 0
-462 438 466 0
-462 -439 -467 0
462 439 -467 0
462 -439 467 0
-462 439 467 0
-462 -440 -468 0
462 440 -468 0
462 -440 468 0
-462 440 468 0
-462 -441 -469 0
462 441 -469 0
462 -441 469 0
-462 441 469 0
-351 -463 -470 0
351 470 0
463 470 0
-462 -442 -471 0
462 442 -471 0
462 -442 471 0
-462 442 471 0
-463 -354 -472 0
463 472 0
354 472 0
-462 -443 -473 0
462 443 -473 0
462 -443 473 0
-462 443 473 0
-463 -358 -474 0
463 474 0
358 474 0
-462 -444 -475 0
462 444 -475 0
462 -444 475 0
-462 444 475 0
-463 -362 -476 0
463 476 0
362 476 0
-463 -366 -477 0
463 477 0
366 477 0
-463 -370 -478 0
463 478 0
370 478 0
-463 -374 -479 0
463 479 0
374 479 0
-463 -378 -480 0
463 480 0
378 480 0
-463 -382 -481 0
463 481 0
382 481 0
-464 -435 -482 0
464 482 0
435 482 0
-464 -436 -483 0
464 483 0
436 483 0
-465 -445 -484 0
465 484 0
445 484 0
-466 -447 -485 0
466 485 0
447 485 0
-467 -449 -486 0
467 486 0
449 486 0
-468 -451 -487 0
468 487 0
451 487 0
-469 -453 -488 0
469 488 0
453 488 0
-471 -455 -489 0
471 489 0
455 489 0
-473 -457 -490 0
473 490 0
457 490 0
-465 -446 -492 0
465 492 0
446 492 0
-466 -448 -493 0
466 493 0
448 493 0
-467 -450 -494 0
467 494 0
450 494 0
-468 -452 -495 0
468 495 0
452 495 0
-469 -454 -496 0
469 496 0
454 496 0
-471 -456 -497 0
471 497 0
456 497 0
-473 -458 -498 0
473 498 0
458 498 0
-475 -460 -499 0
475 499 0
460 499 0
-482 -484 -485 -486 -487 -488 -489 -490 -491 500 0
482 -500 0
484 -500 0
485 -500 0
486 -500 0
487 -500 0
488 -500 0
489 -500 0
490 -500 0
491 -500 0
483 501 0
-483 -501 0
492 502 0
-492 -502 0
493 503 0
-493 -503 0
494 504 0
-494 -504 0
495 505 0
-495 -505 0
496 506 0
-496 -506 0
497 507 0
-497 -507 0
498 508 0
-498 -508 0
499 509 0
-499 -509 0
500 510 0
-500 -510 0
500 511 0
-500 -511 0
500 410 0
-500 -410 0
-510 -482 -512 0
510 482 -512 0
510 -482 512 0
-510 482 512 0
-510 -484 -513 0
510 484 -513 0
510 -484 513 0
-510 484 513 0
-510 -485 -514 0
510 485 -514 0
510 -485 514 0
-510 485 514 0
-510 -486 -515 0
510 486 -515 0
510 -486 515 0
-510 486 515 0
-353 -511 -516 0
353 516 0
511 516 0
-510 -487 -517 0
510 487 -517 0
510 -487 517 0
-510 487 517 0
-511 -357 -518 0
511 518 0
357 518 0
-510 -488 -519 0
510 488 -519 0
510 -488 519 0
-510 488 519 0
-511 -361 -520 0
511 520 0
361 520 0
-510 -489 -521 0
510 489 -521 0
510 -489 521 0
-510 489 521 0
-511 -365 -522 0
511 522 0
365 522 0
-510 -490 -523 0
510 490 -523 0
510 -490 523 0
-510 490 523 0
-511 -369 -524 0
511 524 0
369 524 0
-510 -491 -525 0
510 491 -525 0
510 -491 525 0
-510 491 525 0
-511 -373 -526 0
511 526 0
373 526 0
-511 -377 -527 0
511 527 0
377 527 0
-511 -381 -528 0
511 528 0
381 528 0
-511 -385 -529 0
511 529 0
385 529 0
-512 -501 -530 0
512 530 0
501 530 0
-513 -502 -531 0
513 531 0
502 531 0
-514 -503 -532 0
514 532 0
503 532 0
-515 -504 -533 0
515 533 0
504 533 0
-517 -505 -534 0
517 534 0
505 534 0
-519 -506 -535 0
519 535 0
506 535 0
-521 -507 -536 0
521 536 0
507 536 0
-523 -508 -537 0
523 537 0
508 537 0
-525 -509 -538 0
525 538 0
509 538 0
-530 -531 -532 -533 -534 -535 -536 -537 -538 539 0
530 -539 0
531 -539 0
532 -539 0
533 -539 0
534 -539 0
535 -539 0
536 -539 0
537 -539 0
538 -539 0
539 540 0
-539 -540 0
539 411 0
-539 -411 0
-355 -540 -541 0
355 541 0
540 541 0
-540 -359 -542 0
540 542 0
359 542 0
-540 -363 -543 0
540 543 0
363 543 0
-540 -367 -544 0
540 544 0
367 544 0
-540 -371 -545 0
540 545 0
371 545 0
-540 -375 -546 0
540 546 0
375 546 0
-540 -379 -547 0
540 547 0
379 547 0
-540 -383 -548 0
540 548 0
383 548 0
-540 -386 -549 0
540 549 0
386 549 0
-352 -470 -516 -541 -550 0
352 550 0
470 550 0
516 550 0
541 550 0
-472 -518 -542 -356 -551 0
472 551 0
518 551 0
542 551 0
356 551 0
-474 -520 -543 -360 -552 0
474 552 0
520 552 0
543 552 0
360 552 0
-476 -522 -544 -364 -553 0
476 553 0
522 553 0
544 553 0
364 553 0
-477 -524 -545 -368 -554 0
477 554 0
524 554 0
545 554 0
368 554 0
-478 -526 -546 -372 -555 0
478 555 0
526 555 0
546 555 0
372 555 0
-479 -527 -547 -376 -556 0
479 556 0
527 556 0
547 556 0
376 556 0
-480 -528 -548 -380 -557 0
480 557 0
528 557 0
548 557 0
380 557 0
-481 -529 -549 -384 -558 0
481 558 0
529 558 0
549 558 0
384 558 0
550 559 0
-550 -559 0
-551 -552 -553 -554 -555 -556 -557 -558 560 0
551 -560 0
552 -560 0
553 -560 0
554 -560 0
555 -560 0
556 -560 0
557 -560 0
558 -560 0
553 561 0
-553 -561 0
555 562 0
-555 -562 0
556 563 0
-556 -563 0
557 564 0
-557 -564 0
559 560 412 0
-559 -412 0
-560 -412 0
-552 -561 -565 0
552 565 0
561 565 0
-552 -553 -562 -554 -566 0
552 566 0
553 566 0
562 566 0
554 566 0
-554 -553 -563 -567 0
554 567 0
553 567 0
563 567 0
-552 -553 -556 -564 -568 0
552 568 0
553 568 0
556 568 0
564 568 0
-551 -552 -565 -554 -413 0
551 413 0
552 413 0
565 413 0
554 413 0
-551 -552 -566 -567 -414 0
551 414 0
552 414 0
566 414 0
567 414 0
-551 -565 -566 -568 -415 0
551 415 0
565 415 0
566 415 0
568 415 0
389 569 0
-389 -569 0
390 570 0
-390 -570 0
387 388 0
-387 -388 0
-387 -569 572 0
387 -572 0
569 -572 0
-388 -569 573 0
388 -573 0
569 -573 0
-387 -389 574 0
387 -574 0
389 -574 0
-388 -389 575 0
388 -575 0
389 -575 0
-572 -570 581 0
572 -581 0
570 -581 0
-573 -390 579 0
573 -579 0
390 -579 0
-574 -570 577 0
574 -577 0
570 -577 0
-575 -390 576 0
575 -576 0
390 -576 0
576 577 -578 0
-576 578 0
-577 578 0
578 579 -580 0
-578 580 0
-579 580 0
581 580 -571 0
-581 571 0
-580 571 0
391 582 0
-391 -582 0
392 583 0
-392 -583 0
387 388 0
-387 -388 0
-387 -582 584 0
387 -584 0
582 -584 0
-388 -582 585 0
388 -585 0
582 -585 0
-387 -391 586 0
387 -586 0
391 -586 0
-388 -391 587 0
388 -587 0
391 -587 0
-584 -583 593 0
584 -593 0
583 -593 0
-585 -392 591 0
585 -591 0
392 -591 0
-586 -583 589 0
586 -589 0
583 -589 0
-587 -392 588 0
587 -588 0
392 -588 0
588 589 -590 0
-588 590 0
-589 590 0
590 591 -592 0
-590 592 0
-591 592 0
593 592 -571 0
-593 571 0
-592 571 0
393 594 0
-393 -594 0
394 595 0
-394 -595 0
385 596 0
-385 -596 0
-385 -594 598 0
385 -598 0
594 -598 0
-596 -594 599 0
596 -599 0
594 -599 0
-387 -393 600 0
387 -600 0
393 -600 0
-388 -393 601 0
388 -601 0
393 -601 0
-598 -595 607 0
598 -607 0
595 -607 0
-599 -394 605 0
599 -605 0
394 -605 0
-600 -595 603 0
600 -603 0
595 -603 0
-601 -394 602 0
601 -602 0
394 -602 0
602 603 -604 0
-602 604 0
-603 604 0
604 605 -606 0
-604 606 0
-605 606 0
607 606 -597 0
-607 597 0
-606 597 0
395 608 0
-395 -608 0
396 609 0
-396 -609 0
433 610 0
-433 -610 0
-433 -608 612 0
433 -612 0
608 -612 0
-610 -608 613 0
610 -613 0
608 -613 0
-387 -395 614 0
387 -614 0
395 -614 0
-388 -395 615 0
388 -615 0
395 -615 0
-612 -609 621 0
612 -621 0
609 -621 0
-613 -396 619 0
613 -619 0
396 -619 0
-614 -609 617 0
614 -617 0
609 -617 0
-615 -396 616 0
615 -616 0
396 -616 0
616 617 -618 0
-616 618 0
-617 618 0
618 619 -620 0
-618 620 0
-619 620 0
621 620 -611 0
-621 611 0
-620 611 0
397 622 0
-397 -622 0
398 623 0
-398 -623 0
625 624 0
-625 -624 0
-625 -622 626 0
625 -626 0
622 -626 0
-624 -622 627 0
624 -627 0
622 -627 0
-387 -397 628 0
387 -628 0
397 -628 0
-388 -397 629 0
388 -629 0
397 -629 0
-626 -623 635 0
626 -635 0
623 -635 0
-627 -398 633 0
627 -633 0
398 -633 0
-628 -623 631 0
628 -631 0
623 -631 0
-629 -398 630 0
629 -630 0
398 -630 0
630 631 -632 0
-630 632 0
-631 632 0
632 633 -634 0
-632 634 0
-633 634 0
635 634 -459 0
-635 459 0
-634 459 0
-571 -571 -597 -611 -625 0
571 625 0
571 625 0
597 625 0
611 625 0
399 636 0
-399 -636 0
400 637 0
-400 -637 0
387 388 0
-387 -388 0
-387 -636 638 0
387 -638 0
636 -638 0
-388 -636 639 0
388 -639 0
636 -639 0
-387 -399 640 0
387 -640 0
399 -640 0
-388 -399 641 0
388 -641 0
399 -641 0
-638 -637 647 0
638 -647 0
637 -647 0
-639 -400 645 0
639 -645 0
400 -645 0
-640 -637 643 0
640 -643 0
637 -643 0
-641 -400 642 0
641 -642 0
400 -642 0
642 643 -644 0
-642 644 0
-643 644 0
644 645 -646 0
-644 646 0
-645 646 0
647 646 -571 0
-647 571 0
-646 571 0
401 648 0
-401 -648 0
402 649 0
-402 -649 0
387 388 0
-387 -388 0
-387 -648 650 0
387 -650 0
648 -650 0
-388 -648 651 0
388 -651 0
648 -651 0
-387 -401 652 0
387 -652 0
401 -652 0
-388 -401 653 0
388 -653 0
401 -653 0
-650 -649 659 0
650 -659 0
649 -659 0
-651 -402 657 0
651 -657 0
402 -657 0
-652 -649 655 0
652 -655 0
649 -655 0
-653 -402 654 0
653 -654 0
402 -654 0
654 655 -656 0
-654 656 0
-655 656 0
656 657 -658 0
-656 658 0
-657 658 0
659 658 -571 0
-659 571 0
-658 571 0
403 660 0
-403 -660 0
404 661 0
-404 -661 0
475 662 0
-475 -662 0
-475 -660 664 0
475 -664 0
660 -664 0
-662 -660 665 0
662 -665 0
660 -665 0
-387 -403 666 0
387 -666 0
403 -666 0
-388 -403 667 0
388 -667 0
403 -667 0
-664 -661 673 0
664 -673 0
661 -673 0
-665 -404 671 0
665 -671 0
404 -671 0
-666 -661 669 0
666 -669 0
661 -669 0
-667 -404 668 0
667 -668 0
404 -668 0
668 669 -670 0
-668 670 0
-669 670 0
670 671 -672 0
-670 672 0
-671 672 0
673 672 -663 0
-673 663 0
-672 663 0
405 674 0
-405 -674 0
406 675 0
-406 -675 0
459 676 0
-459 -676 0
-459 -674 677 0
459 -677 0
674 -677 0
-676 -674 678 0
676 -678 0
674 -678 0
-387 -405 679 0
387 -679 0
405 -679 0
-388 -405 680 0
388 -680 0
405 -680 0
-677 -675 686 0
677 -686 0
675 -686 0
-678 -406 684 0
678 -684 0
406 -684 0
-679 -675 682 0
679 -682 0
675 -682 0
-680 -406 681 0
680 -681 0
406 -681 0
681 682 -683 0
-681 683 0
-682 683 0
683 684 -685 0
-683 685 0
-684 685 0
686 685 -625 0
-686 625 0
-685 625 0
407 687 0
-407 -687 0
408 688 0
-408 -688 0
690 689 0
-690 -689 0
-690 -687 691 0
690 -691 0
687 -691 0
-689 -687 692 0
689 -692 0
687 -692 0
-387 -407 693 0
387 -693 0
407 -693 0
-388 -407 694 0
388 -694 0
407 -694 0
-691 -688 700 0
691 -700 0
688 -700 0
-692 -408 698 0
692 -698 0
408 -698 0
-693 -688 696 0
693 -696 0
688 -696 0
-694 -408 695 0
694 -695 0
408 -695 0
695 696 -697 0
-695 697 0
-696 697 0
697 698 -699 0
-697 699 0
-698 699 0
700 699 -491 0
-700 491 0
-699 491 0
-571 -571 -663 -625 -690 0
571 690 0
571 690 0
663 690 0
625 690 0
37 0
-38 0
c Force PIs of 2 ckts to be the same:
1 -351 0
-1 351 0
2 -352 0
-2 352 0
3 -353 0
-3 353 0
4 -354 0
-4 354 0
5 -355 0
-5 355 0
6 -356 0
-6 356 0
7 -357 0
-7 357 0
8 -358 0
-8 358 0
9 -359 0
-9 359 0
10 -360 0
-10 360 0
11 -361 0
-11 361 0
12 -362 0
-12 362 0
13 -363 0
-13 363 0
14 -364 0
-14 364 0
15 -365 0
-15 365 0
16 -366 0
-16 366 0
17 -367 0
-17 367 0
18 -368 0
-18 368 0
19 -369 0
-19 369 0
20 -370 0
-20 370 0
21 -371 0
-21 371 0
22 -372 0
-22 372 0
23 -373 0
-23 373 0
24 -374 0
-24 374 0
25 -375 0
-25 375 0
26 -376 0
-26 376 0
27 -377 0
-27 377 0
28 -378 0
-28 378 0
29 -379 0
-29 379 0
30 -380 0
-30 380 0
31 -381 0
-31 381 0
32 -382 0
-32 382 0
33 -383 0
-33 383 0
34 -384 0
-34 384 0
35 -385 0
-35 385 0
36 -386 0
-36 386 0
37 -387 0
-37 387 0
38 -388 0
-38 388 0
c XOR outputs of 2 ckts:
-59 -409 -701 0
59 409 -701 0
59 -409 701 0
-59 409 701 0
-60 -410 -702 0
60 410 -702 0
60 -410 702 0
-60 410 702 0
-61 -411 -703 0
61 411 -703 0
61 -411 703 0
-61 411 703 0
-62 -412 -704 0
62 412 -704 0
62 -412 704 0
-62 412 704 0
-63 -413 -705 0
63 413 -705 0
63 -413 705 0
-63 413 705 0
-64 -414 -706 0
64 414 -706 0
64 -414 706 0
-64 414 706 0
-65 -415 -707 0
65 415 -707 0
65 -415 707 0
-65 415 707 0
c The last OR gate of the miter:
701 702 703 704 705 706 707 -708 0
-701 708 0
-702 708 0
-703 708 0
-704 708 0
-705 708 0
-706 708 0
-707 708 0
708 0
